&control
prefix = '7000-epm',
calculation = 'scf'
pseudo_dir = '/scratch/smkang/PP/'
outdir = '/scratch/smkang/gst_primitive/band/tmp/'
disk_io = 'none'
/
&system
ibrav = 0
nbnd = 31
ntyp = 9
nat =  9
ecutwfc = 84
nosym = .true.
noinv = .true.
/
&electrons
electron_maxstep = 1
diagonalization = 'david'
mixing_mode = 'plain'
mixing_beta = 0.7
diago_thr_init = 1.0d-3
conv_thr =  1.0d-8
/
ATOMIC_SPECIES
Si1 1 Si.upf
Si2 1 Si.upf
Si3 1 Si.upf
O1 1 O.upf
O2 1 O.upf
O3 1 O.upf
O4 1 O.upf
O5 1 O.upf
O6 1 O.upf
CELL_PARAMETERS angstrom
    5.0215030000000000    0.0000000000000000    0.0000000000000000
   -2.5107510000000000    4.3487489999999998    0.0000000000000000
    0.0000000000000000    0.0000000000000000    5.5105700000000004
ATOMIC_POSITIONS angstrom
Si1     1.3148682686399999    2.2774181075550000    0.0000000000000000
Si2    -1.1958832550549998    2.0713308924449998    3.6737151701900004
Si3     2.3917669864150000    0.0000000000000000    1.8368548298100000
O1     0.2443816939279999    1.8040959176459999    4.3783848195099999
O2     0.8261682231980005    3.6583416087599998    0.7046696493200000
O3    -1.0705489171259996    3.2350604735939998    2.5415299897000003
O4     1.4402023389680001    1.1136885264059999    1.1321851804900001
O5     3.3369193819579994    0.6904073912400001    2.9690400103000001
O6     2.7551332790739997    2.5446530823539999    4.8059003506800000
K_POINTS crystal_b
6 ! knpt = 6
0.000 0.000 0.000 30 ! K1
0.500 0.000 0.000 30 ! K2
0.500 0.500 0.000 30 ! K3
0.000 0.000 0.000 30 ! K4
0.500 0.500 0.500 30 ! K5
0.500 0.000 0.000 30 ! K6
